Version identifier: 22.1.0.0 | 2022-03-09 | 1a383f8ce
CPXPARAM_Read_DataCheck                          1
CPXPARAM_TimeLimit                               600
Tried aggregator 3 times.
MIP Presolve eliminated 196214 rows and 13167 columns.
MIP Presolve modified 1849 coefficients.
Aggregator did 185247 substitutions.
Reduced MIP has 15571 rows, 189426 columns, and 394786 nonzeros.
Reduced MIP has 189378 binaries, 48 generals, 0 SOSs, and 0 indicators.
Presolve time = 2.85 sec. (2771.57 ticks)
Tried aggregator 1 time.
Detecting symmetries...
Reduced MIP has 15571 rows, 189426 columns, and 394786 nonzeros.
Reduced MIP has 189378 binaries, 48 generals, 0 SOSs, and 0 indicators.
Presolve time = 0.58 sec. (298.73 ticks)
Probing fixed 72 vars, tightened 0 bounds.
Probing changed sense of 13 constraints.
Probing time = 0.47 sec. (52.70 ticks)
Clique table members: 382793.
MIP emphasis: balance optimality and feasibility.
MIP search method: dynamic search.
Parallel mode: deterministic, using up to 8 threads.
Root relaxation solution time = 4.20 sec. (1498.74 ticks)

        Nodes                                         Cuts/
   Node  Left     Objective  IInf  Best Integer    Best Bound    ItCnt     Gap

      0     0       48.4004 11706                     48.4004       27         
      0     0       79.0000  1354                   Fract: 31    27957         
      0     0       79.0000  1345                    Cuts: 87    45227         
      0     0       79.0000  1286                ZeroHalf: 68    62755         
      0     0       79.0000  1112                    Cuts: 70    84057         
      0     0       79.0000   969                ZeroHalf: 57   104115         

Clique cuts applied:  2
Zero-half cuts applied:  221
Lift and project cuts applied:  3
Gomory fractional cuts applied:  32

Root node processing (before b&c):
  Real time             =  600.04 sec. (230081.35 ticks)
Parallel b&c, 8 threads:
  Real time             =    0.00 sec. (0.00 ticks)
  Sync time (average)   =    0.00 sec.
  Wait time (average)   =    0.00 sec.
                          ------------
Total (root+branch&cut) =  600.04 sec. (230081.35 ticks)
